UNSAT
The proof for unsat is:
([17, 18, 19, 20] [-6, -18]) -> [17, 19, 20, -6]
([17, 19, 20, -6] [-15, -19]) -> [17, 20, -6, -15]
([17, 20, -6, -15] [-12, -20]) -> [17, -6, -12, -15]
([17, -6, -12, -15] [9, 10, 11, 12]) -> [17, -6, 9, 10, 11, -15]
([17, -6, 9, 10, 11, -15] [-6, -10]) -> [17, -6, 9, 11, -15]
([17, -6, 9, 11, -15] [13, 14, 15, 16]) -> [16, 17, -6, 9, 11, 13, 14]
([16, 17, -6, 9, 11, 13, 14] [-6, -14]) -> [16, 17, -6, 9, 11, 13]
([16, 17, -6, 9, 11, 13] [-12, -16]) -> [17, -6, 9, 11, -12, 13]
([17, -6, 9, 11, -12, 13] [9, 10, 11, 12]) -> [17, -6, 9, 10, 11, 13]
([17, -6, 9, 10, 11, 13] [-6, -10]) -> [17, -6, 9, 11, 13]
([-10, -18] [9, 10, 11, 12]) -> [-18, 9, 11, 12]
([-18, 9, 11, 12] [17, 18, 19, 20]) -> [17, 19, 20, 9, 11, 12]
([17, 19, 20, 9, 11, 12] [-16, -20]) -> [17, 19, 9, 11, 12, -16]
([17, 19, 9, 11, 12, -16] [13, 14, 15, 16]) -> [17, 19, 9, 11, 12, 13, 14, 15]
([17, 19, 9, 11, 12, 13, 14, 15] [-10, -14]) -> [17, 19, 9, -10, 11, 12, 13, 15]
([17, 19, 9, -10, 11, 12, 13, 15] [9, 10, 11, 12]) -> [17, 19, 9, 11, 12, 13, 15]
([-14, -18] [13, 14, 15, 16]) -> [16, -18, 13, 15]
([16, -18, 13, 15] [-12, -16]) -> [-18, -12, 13, 15]
([-18, -12, 13, 15] [17, 18, 19, 20]) -> [17, 19, 20, -12, 13, 15]
([17, 19, 20, -12, 13, 15] [17, 19, 9, 11, 12, 13, 15]) -> [17, 19, 20, 9, 11, 13, 15]
([17, 19, 20, 9, 11, 13, 15] [-7, -19]) -> [17, 20, -7, 9, 11, 13, 15]
([17, 20, -7, 9, 11, 13, 15] [-7, -15]) -> [17, 20, -7, 9, 11, 13]
([17, 20, -7, 9, 11, 13] [-12, -20]) -> [17, -7, 9, 11, -12, 13]
([17, -7, 9, 11, -12, 13] [17, 19, 9, 11, 12, 13, 15]) -> [17, 19, -7, 9, 11, 13, 15]
([17, 19, -7, 9, 11, 13, 15] [-7, -19]) -> [17, -7, 9, 11, 13, 15]
([17, -7, 9, 11, 13, 15] [-7, -15]) -> [17, -7, 9, 11, 13]
([17, -7, 9, 11, 13] [5, 6, 7, 8]) -> [17, 5, 6, 8, 9, 11, 13]
([17, 5, 6, 8, 9, 11, 13] [17, -6, 9, 11, 13]) -> [17, 5, 8, 9, 11, 13]
([17, 19, 20, -6] [-11, -19]) -> [17, 20, -6, -11]
([17, 20, -6, -11] [-16, -20]) -> [17, -6, -11, -16]
([17, -6, -11, -16] [5, 6, 7, 8]) -> [17, 5, 7, 8, -11, -16]
([17, 5, 7, 8, -11, -16] [17, 5, 8, 9, 11, 13]) -> [17, 5, 7, 8, 9, 13, -16]
([17, 5, 7, 8, 9, 13, -16] [13, 14, 15, 16]) -> [17, 5, 7, 8, 9, 13, 14, 15]
([17, 5, 7, 8, 9, 13, 14, 15] [-7, -11]) -> [17, 5, 8, 9, -11, 13, 14, 15]
([17, 5, 8, 9, -11, 13, 14, 15] [17, 5, 8, 9, 11, 13]) -> [17, 5, 8, 9, 13, 14, 15]
([17, 5, 8, 9, 13, 14, 15] [-6, -14]) -> [17, 5, -6, 8, 9, 13, 15]
([17, 5, -6, 8, 9, 13, 15] [5, 6, 7, 8]) -> [17, 5, 7, 8, 9, 13, 15]
([17, 5, 7, 8, 9, 13, 15] [-7, -11]) -> [17, 5, 8, 9, -11, 13, 15]
([17, 5, 8, 9, -11, 13, 15] [17, 5, 8, 9, 11, 13]) -> [17, 5, 8, 9, 13, 15]
([17, 5, 8, 9, 13, 15] [-11, -15]) -> [17, 5, 8, 9, -11, 13]
([17, 5, 8, 9, -11, 13] [17, 5, 8, 9, 11, 13]) -> [17, 5, 8, 9, 13]
([16, -18, 13, 15] [17, 18, 19, 20]) -> [16, 17, 19, 20, 13, 15]
([16, 17, 19, 20, 13, 15] [-11, -19]) -> [16, 17, 20, -11, 13, 15]
([16, 17, 20, -11, 13, 15] [-11, -15]) -> [16, 17, 20, -11, 13]
([-15, -19] [13, 14, 15, 16]) -> [16, -19, 13, 14]
([16, -19, 13, 14] [17, 18, 19, 20]) -> [16, 17, 18, 20, 13, 14]
([16, 17, 18, 20, 13, 14] [-10, -18]) -> [16, 17, 20, -10, 13, 14]
([16, 17, 20, -10, 13, 14] [-10, -14]) -> [16, 17, 20, -10, 13]
([-8, -12] [9, 10, 11, 12]) -> [-8, 9, 10, 11]
([-8, 9, 10, 11] [17, 5, 8, 9, 13]) -> [17, 5, 9, 10, 11, 13]
([17, 5, 9, 10, 11, 13] [16, 17, 20, -10, 13]) -> [16, 17, 20, 5, 9, 11, 13]
([16, 17, 20, 5, 9, 11, 13] [16, 17, 20, -11, 13]) -> [16, 17, 20, 5, 9, 13]
([16, 17, 20, 5, 9, 13] [-8, -16]) -> [17, 20, 5, -8, 9, 13]
([17, 20, 5, -8, 9, 13] [17, 5, 8, 9, 13]) -> [17, 20, 5, 9, 13]
([17, 20, 5, 9, 13] [-1, -17]) -> [-1, 20, 5, 9, 13]
([-1, 20, 5, 9, 13] [-1, -5]) -> [-1, 20, 9, 13]
([-1, 20, 9, 13] [-1, -9]) -> [-1, 20, 13]
([-1, 20, 13] [-1, -13]) -> [-1, 20]
([-1, 20] [-8, -20]) -> [-1, -8]
([-1, -8] [17, 5, 8, 9, 13]) -> [-1, 17, 5, 9, 13]
([-1, 17, 5, 9, 13] [-1, -17]) -> [-1, 5, 9, 13]
([-1, 5, 9, 13] [-1, -5]) -> [-1, 9, 13]
([-1, 9, 13] [-1, -9]) -> [-1, 13]
([-1, 13] [-1, -13]) -> [-1]
([-4, -8] [1, 2, 3, 4]) -> [1, 2, 3, -8]
([1, 2, 3, -8] [-3, -19]) -> [1, 2, -19, -8]
([1, 2, -19, -8] [17, 18, 19, 20]) -> [1, 17, 2, 18, 20, -8]
([1, 17, 2, 18, 20, -8] [5, 6, 7, 8]) -> [1, 17, 2, 18, 20, 5, 6, 7]
([1, 17, 2, 18, 20, 5, 6, 7] [-7, -19]) -> [1, 17, 2, 18, -19, 20, 5, 6]
([1, 17, 2, 18, -19, 20, 5, 6] [17, 18, 19, 20]) -> [1, 17, 2, 18, 20, 5, 6]
([-3, -7] [1, 2, 3, 4]) -> [1, 2, 4, -7]
([1, 2, 4, -7] [-2, -14]) -> [1, 4, -7, -14]
([1, 4, -7, -14] [-4, -20]) -> [1, -20, -7, -14]
([1, -20, -7, -14] [5, 6, 7, 8]) -> [1, -20, 5, 6, 8, -14]
([1, -20, 5, 6, 8, -14] [1, 17, 2, 18, 20, 5, 6]) -> [1, 17, 2, 18, 5, 6, 8, -14]
([1, 17, 2, 18, 5, 6, 8, -14] [-2, -14]) -> [1, 17, 18, 5, 6, 8, -14]
([1, 17, 18, 5, 6, 8, -14] [-14, -18]) -> [1, 17, 5, 6, 8, -14]
([1, 17, 5, 6, 8, -14] [-6, -14]) -> [1, 17, 5, 8, -14]
([1, 17, 5, 8, -14] [-8, -20]) -> [1, 17, -20, 5, -14]
([1, 17, -20, 5, -14] [1, 17, 2, 18, 20, 5, 6]) -> [1, 17, 2, 18, 5, 6, -14]
([1, 17, 2, 18, 5, 6, -14] [-2, -14]) -> [1, 17, 18, 5, 6, -14]
([1, 17, 18, 5, 6, -14] [-14, -18]) -> [1, 17, 5, 6, -14]
([1, 17, 5, 6, -14] [-6, -14]) -> [1, 17, 5, -14]
([-6, -18] [5, 6, 7, 8]) -> [-18, 5, 7, 8]
([-18, 5, 7, 8] [17, 18, 19, 20]) -> [17, 19, 20, 5, 7, 8]
([17, 19, 20, 5, 7, 8] [-3, -19]) -> [17, -3, 20, 5, 7, 8]
([17, -3, 20, 5, 7, 8] [1, 2, 3, 4]) -> [17, 1, 2, 20, 4, 5, 7, 8]
([17, 1, 2, 20, 4, 5, 7, 8] [-2, -6]) -> [1, 17, 4, 20, 5, -6, 7, 8]
([1, 17, 4, 20, 5, -6, 7, 8] [5, 6, 7, 8]) -> [1, 17, 4, 20, 5, 7, 8]
([1, 2, 4, -7] [-2, -18]) -> [1, -18, 4, -7]
([1, -18, 4, -7] [17, 18, 19, 20]) -> [1, 17, 19, 4, 20, -7]
([1, 17, 19, 4, 20, -7] [1, 17, 4, 20, 5, 7, 8]) -> [1, 17, 19, 4, 20, 5, 8]
([1, 17, 19, 4, 20, 5, 8] [-7, -19]) -> [1, 17, 4, 20, 5, -7, 8]
([1, 17, 4, 20, 5, -7, 8] [1, 17, 4, 20, 5, 7, 8]) -> [1, 17, 4, 20, 5, 8]
([-16, -20] [13, 14, 15, 16]) -> [-20, 13, 14, 15]
([-20, 13, 14, 15] [-9, -13]) -> [-20, -9, 14, 15]
([-20, -9, 14, 15] [9, 10, 11, 12]) -> [-20, 10, 11, 12, 14, 15]
([-20, 10, 11, 12, 14, 15] [1, 17, 4, 20, 5, 8]) -> [1, 17, 4, 5, 8, 10, 11, 12, 14, 15]
([1, 17, 4, 5, 8, 10, 11, 12, 14, 15] [1, 17, 5, -14]) -> [1, 17, 4, 5, 8, 10, 11, 12, 15]
([1, 17, 4, 5, 8, 10, 11, 12, 15] [-9, -17]) -> [1, 4, 5, 8, -9, 10, 11, 12, 15]
([1, 4, 5, 8, -9, 10, 11, 12, 15] [9, 10, 11, 12]) -> [1, 4, 5, 8, 10, 11, 12, 15]
([1, 4, 5, 8, 10, 11, 12, 15] [-4, -16]) -> [1, 5, 8, 10, 11, 12, 15, -16]
([1, 5, 8, 10, 11, 12, 15, -16] [-8, -16]) -> [1, 5, 10, 11, 12, -16, 15]
([1, 5, 10, 11, 12, -16, 15] [13, 14, 15, 16]) -> [1, 5, 10, 11, 12, 13, 14, 15]
([1, 5, 10, 11, 12, 13, 14, 15] [1, 17, 5, -14]) -> [1, 17, 5, 10, 11, 12, 13, 15]
([1, 17, 5, 10, 11, 12, 13, 15] [-9, -17]) -> [1, 5, -9, 10, 11, 12, 13, 15]
([1, 5, -9, 10, 11, 12, 13, 15] [9, 10, 11, 12]) -> [1, 5, 10, 11, 12, 13, 15]
([1, 5, 10, 11, 12, 13, 15] [-5, -9]) -> [1, -9, 10, 11, 12, 13, 15]
([1, -9, 10, 11, 12, 13, 15] [9, 10, 11, 12]) -> [1, 10, 11, 12, 13, 15]
([1, 10, 11, 12, 13, 15] [-9, -13]) -> [1, -9, 10, 11, 12, 15]
([1, -9, 10, 11, 12, 15] [9, 10, 11, 12]) -> [1, 10, 11, 12, 15]
([-6, -14] [5, 6, 7, 8]) -> [5, 7, 8, -14]
([5, 7, 8, -14] [-5, -17]) -> [-17, 7, 8, -14]
([-17, 7, 8, -14] [13, 14, 15, 16]) -> [-17, 16, 7, 8, 13, 15]
([-17, 16, 7, 8, 13, 15] [-13, -17]) -> [-17, 16, 7, 8, 15]
([-3, -19] [1, 2, 3, 4]) -> [1, -19, 2, 4]
([1, -19, 2, 4] [17, 18, 19, 20]) -> [1, 17, 2, 18, 4, 20]
([1, 17, 2, 18, 4, 20] [-5, -17]) -> [1, 2, 18, 4, 20, -5]
([1, 2, 18, 4, 20, -5] [-2, -14]) -> [1, 18, -5, 4, 20, -14]
([1, 18, -5, 4, 20, -14] [13, 14, 15, 16]) -> [16, 1, 18, -5, 4, 20, 13, 15]
([16, 1, 18, -5, 4, 20, 13, 15] [-5, -13]) -> [16, 1, 18, -5, 4, 20, 15]
([1, 4, -7, -14] [13, 14, 15, 16]) -> [16, 1, 4, -7, 13, 15]
([16, 1, 4, -7, 13, 15] [-17, 16, 7, 8, 15]) -> [16, -17, 1, 4, 8, 13, 15]
([16, -17, 1, 4, 8, 13, 15] [1, 17, 4, 20, 5, 8]) -> [16, 1, 4, 20, 5, 8, 13, 15]
([16, 1, 4, 20, 5, 8, 13, 15] [16, 1, 18, -5, 4, 20, 15]) -> [16, 1, 18, 4, 20, 8, 13, 15]
([16, 1, 18, 4, 20, 8, 13, 15] [-13, -17]) -> [16, -17, 1, 18, 4, 20, 8, 15]
([16, -17, 1, 18, 4, 20, 8, 15] [1, 17, 4, 20, 5, 8]) -> [16, 1, 18, 4, 20, 5, 8, 15]
([16, 1, 18, 4, 20, 5, 8, 15] [16, 1, 18, -5, 4, 20, 15]) -> [16, 1, 18, 4, 20, 8, 15]
([1, 17, 4, 20, 5, 8] [-13, -17]) -> [1, 4, 20, 5, 8, -13]
([1, 4, 20, 5, 8, -13] [-5, -13]) -> [1, 4, 20, 8, -13]
([16, 1, 18, 4, 20, 8, 15] [-12, -16]) -> [1, 18, 4, 20, 8, -12, 15]
([1, 18, 4, 20, 8, -12, 15] [1, 10, 11, 12, 15]) -> [1, 18, 4, 20, 8, 10, 11, 15]
([1, 18, 4, 20, 8, 10, 11, 15] [-14, -18]) -> [1, 4, 20, 8, 10, 11, -14, 15]
([1, 4, 20, 8, 10, 11, -14, 15] [13, 14, 15, 16]) -> [16, 1, 4, 20, 8, 10, 11, 13, 15]
([16, 1, 4, 20, 8, 10, 11, 13, 15] [1, 4, 20, 8, -13]) -> [16, 1, 4, 20, 8, 10, 11, 15]
([16, 1, 4, 20, 8, 10, 11, 15] [-12, -16]) -> [1, 4, 20, 8, 10, 11, -12, 15]
([1, 4, 20, 8, 10, 11, -12, 15] [1, 10, 11, 12, 15]) -> [1, 4, 20, 8, 10, 11, 15]
([1, 4, 20, 8, 10, 11, 15] [-4, -12]) -> [1, 20, 8, 10, 11, -12, 15]
([1, 20, 8, 10, 11, -12, 15] [1, 10, 11, 12, 15]) -> [1, 20, 8, 10, 11, 15]
([1, 20, 8, 10, 11, 15] [-12, -20]) -> [1, 8, 10, 11, -12, 15]
([1, 8, 10, 11, -12, 15] [1, 10, 11, 12, 15]) -> [1, 8, 10, 11, 15]
([1, 8, 10, 11, 15] [-8, -12]) -> [1, 10, 11, -12, 15]
([1, 10, 11, -12, 15] [1, 10, 11, 12, 15]) -> [1, 10, 11, 15]
([17, 18, 19, 20] [-13, -17]) -> [18, 19, 20, -13]
([18, 19, 20, -13] [-2, -18]) -> [-2, 19, 20, -13]
([-2, 19, 20, -13] [1, 2, 3, 4]) -> [1, 19, 3, 20, 4, -13]
([1, 19, 3, 20, 4, -13] [-8, -20]) -> [1, 3, 19, 4, -8, -13]
([1, 3, 19, 4, -8, -13] [-4, -8]) -> [1, 3, 19, -8, -13]
([1, 3, 19, -8, -13] [13, 14, 15, 16]) -> [16, 1, 3, 19, -8, 14, 15]
([16, 1, 3, 19, -8, 14, 15] [-2, -14]) -> [16, 1, -2, 3, 19, -8, 15]
([16, 1, -2, 3, 19, -8, 15] [1, 2, 3, 4]) -> [16, 1, 3, 19, 4, -8, 15]
([16, 1, 3, 19, 4, -8, 15] [-4, -8]) -> [16, 1, 3, 19, -8, 15]
([-2, -14] [1, 2, 3, 4]) -> [1, 3, 4, -14]
([1, 3, 4, -14] [-4, -20]) -> [1, 3, -20, -14]
([1, 3, -20, -14] [13, 14, 15, 16]) -> [16, 1, -20, 3, 13, 15]
([16, 1, -20, 3, 13, 15] [16, 17, 20, -11, 13]) -> [16, 1, 17, 3, -11, 13, 15]
([1, 2, 3, 4] [-2, -6]) -> [1, 3, 4, -6]
([1, 3, 4, -6] [-4, -20]) -> [1, 3, -20, -6]
([1, 3, -20, -6] [17, 18, 19, 20]) -> [1, 17, 18, 3, 19, -6]
([1, 17, 18, 3, 19, -6] [-6, -18]) -> [1, 17, 3, 19, -6]
([1, 17, 3, 19, -6] [-17, 16, 7, 8, 15]) -> [16, 1, 3, 19, -6, 7, 8, 15]
([16, 1, 3, 19, -6, 7, 8, 15] [16, 1, 3, 19, -8, 15]) -> [16, 1, 3, 19, -6, 7, 15]
([16, 1, 3, 19, -6, 7, 15] [5, 6, 7, 8]) -> [16, 1, 3, 19, 5, 7, 8, 15]
([16, 1, 3, 19, 5, 7, 8, 15] [16, 1, 3, 19, -8, 15]) -> [16, 1, 3, 19, 5, 7, 15]
([16, 1, 3, 19, 5, 7, 15] [-5, -13]) -> [16, 1, 3, 19, 7, -13, 15]
([16, 1, 3, 19, 7, -13, 15] [16, 1, 17, 3, -11, 13, 15]) -> [16, 1, 17, 3, 19, 7, -11, 15]
([16, 1, 17, 3, 19, 7, -11, 15] [-17, 16, 7, 8, 15]) -> [16, 1, 3, 19, 7, 8, -11, 15]
([16, 1, 3, 19, 7, 8, -11, 15] [16, 1, 3, 19, -8, 15]) -> [16, 1, 3, 19, 7, -11, 15]
([-5, -17] [5, 6, 7, 8]) -> [-17, 6, 7, 8]
([-17, 6, 7, 8] [17, 18, 19, 20]) -> [18, 19, 20, 6, 7, 8]
([18, 19, 20, 6, 7, 8] [-2, -18]) -> [-2, 19, 20, 6, 7, 8]
([-2, 19, 20, 6, 7, 8] [-2, -6]) -> [-2, 19, 20, 7, 8]
([-2, 19, 20, 7, 8] [1, 2, 3, 4]) -> [1, 19, 3, 20, 4, 7, 8]
([1, 19, 3, 20, 4, 7, 8] [-11, -19]) -> [1, 3, 4, 20, 7, 8, -11]
([1, 3, 4, 20, 7, 8, -11] [-3, -11]) -> [1, 4, 20, 7, 8, -11]
([1, 4, 20, 7, 8, -11] [-7, -11]) -> [1, 4, 20, 8, -11]
([1, 4, 20, 8, -11] [1, 10, 11, 15]) -> [1, 4, 20, 8, 10, 15]
([1, 4, 20, 8, 10, 15] [-4, -16]) -> [1, 20, 8, 10, 15, -16]
([1, 20, 8, 10, 15, -16] [-16, -20]) -> [1, 8, 10, -16, 15]
([1, 8, 10, -16, 15] [-8, -16]) -> [1, 10, -16, 15]
([1, 10, -16, 15] [16, 1, 3, 19, 7, -11, 15]) -> [1, 3, 19, 7, 10, -11, 15]
([1, 3, 19, 7, 10, -11, 15] [1, 10, 11, 15]) -> [1, 3, 19, 7, 10, 15]
([1, 3, 19, 7, 10, 15] [-3, -11]) -> [1, 19, 7, 10, -11, 15]
([1, 19, 7, 10, -11, 15] [1, 10, 11, 15]) -> [1, 19, 7, 10, 15]
([1, 19, 7, 10, 15] [-11, -19]) -> [1, 7, 10, -11, 15]
([1, 7, 10, -11, 15] [1, 10, 11, 15]) -> [1, 7, 10, 15]
([1, 7, 10, 15] [-7, -11]) -> [1, 10, -11, 15]
([1, 10, -11, 15] [1, 10, 11, 15]) -> [1, 10, 15]
([1, 2, 18, 4, 20, -5] [-4, -16]) -> [1, 2, 18, -5, 20, -16]
([1, 2, 18, -5, 20, -16] [-16, -20]) -> [1, 2, 18, -5, -16]
([1, 2, 18, -5, -16] [5, 6, 7, 8]) -> [1, 2, 18, 6, 7, 8, -16]
([1, 2, 18, 6, 7, 8, -16] [-8, -16]) -> [1, 2, 18, 6, 7, -16]
([1, 2, 18, 6, 7, -16] [-3, -7]) -> [1, 2, 18, -3, 6, -16]
([1, 2, 18, -3, 6, -16] [1, 2, 3, 4]) -> [1, 2, 18, 4, 6, -16]
([1, 2, 18, 4, 6, -16] [-4, -16]) -> [1, 2, 18, 6, -16]
([1, 2, 4, -7] [-4, -20]) -> [1, 2, -20, -7]
([1, 2, -20, -7] [5, 6, 7, 8]) -> [1, 2, -20, 5, 6, 8]
([1, 2, -20, 5, 6, 8] [-8, -20]) -> [1, 2, -20, 5, 6]
([1, 17, 2, 18, 20, 5, 6] [1, 2, -20, 5, 6]) -> [1, 17, 2, 18, 5, 6]
([1, 17, 2, 18, 5, 6] [-13, -17]) -> [1, 2, 18, 5, 6, -13]
([1, 2, 18, 5, 6, -13] [-5, -13]) -> [1, 2, 18, 6, -13]
([1, 2, 18, 6, -13] [-2, -10]) -> [1, 18, 6, -10, -13]
([1, 18, 6, -10, -13] [-10, -18]) -> [1, 6, -10, -13]
([1, 6, -10, -13] [-6, -10]) -> [1, -10, -13]
([1, -10, -13] [1, 10, 15]) -> [1, -13, 15]
([1, -13, 15] [13, 14, 15, 16]) -> [16, 1, 14, 15]
([16, 1, 14, 15] [1, 2, 18, 6, -16]) -> [1, 2, 18, 6, 14, 15]
([1, 2, 18, 6, 14, 15] [-2, -10]) -> [1, 18, 6, -10, 14, 15]
([1, 18, 6, -10, 14, 15] [1, 10, 15]) -> [1, 18, 6, 14, 15]
([1, 18, 6, 14, 15] [-10, -18]) -> [1, 6, -10, 14, 15]
([1, 6, -10, 14, 15] [1, 10, 15]) -> [1, 6, 14, 15]
([1, 6, 14, 15] [-6, -10]) -> [1, -10, 14, 15]
([1, -10, 14, 15] [1, 10, 15]) -> [1, 14, 15]
([1, 14, 15] [-10, -14]) -> [1, -10, 15]
([1, -10, 15] [1, 10, 15]) -> [1, 15]
([1, 3, -20, -6] [5, 6, 7, 8]) -> [1, -20, 3, 5, 7, 8]
([1, -20, 3, 5, 7, 8] [-8, -20]) -> [1, -20, 3, 5, 7]
([1, 2, 3, 4] [-2, -18]) -> [1, -18, 3, 4]
([1, -18, 3, 4] [-4, -12]) -> [-18, 1, 3, -12]
([-18, 1, 3, -12] [9, 10, 11, 12]) -> [-18, 1, 3, 9, 10, 11]
([-18, 1, 3, 9, 10, 11] [-10, -18]) -> [-18, 1, 3, 9, 11]
([17, 18, 19, 20] [-5, -17]) -> [18, 19, 20, -5]
([18, 19, 20, -5] [-18, 1, 3, 9, 11]) -> [1, 19, 3, -5, 20, 9, 11]
([1, 19, 3, -5, 20, 9, 11] [-5, -9]) -> [1, 3, 19, -5, 20, 11]
([-4, -12] [1, 2, 3, 4]) -> [1, 2, 3, -12]
([1, 2, 3, -12] [-2, -6]) -> [1, 3, -6, -12]
([1, 3, -6, -12] [5, 6, 7, 8]) -> [1, 3, 5, 7, 8, -12]
([1, 3, 5, 7, 8, -12] [9, 10, 11, 12]) -> [1, 3, 5, 7, 8, 9, 10, 11]
([1, 3, 5, 7, 8, 9, 10, 11] [-9, -17]) -> [-17, 1, 3, 5, 7, 8, 10, 11]
([-17, 1, 3, 5, 7, 8, 10, 11] [17, 18, 19, 20]) -> [1, 18, 3, 19, 20, 5, 7, 8, 10, 11]
([1, 18, 3, 19, 20, 5, 7, 8, 10, 11] [-6, -18]) -> [1, 3, 19, 20, 5, -6, 7, 8, 10, 11]
([1, 3, 19, 20, 5, -6, 7, 8, 10, 11] [5, 6, 7, 8]) -> [1, 3, 19, 20, 5, 7, 8, 10, 11]
([1, 3, 19, 20, 5, 7, 8, 10, 11] [-6, -10]) -> [1, 3, 19, 20, 5, -6, 7, 8, 11]
([1, 3, 19, 20, 5, -6, 7, 8, 11] [5, 6, 7, 8]) -> [1, 3, 19, 20, 5, 7, 8, 11]
([9, 10, 11, 12] [-9, -17]) -> [-17, 10, 11, 12]
([-17, 10, 11, 12] [17, 18, 19, 20]) -> [18, 19, 20, 10, 11, 12]
([18, 19, 20, 10, 11, 12] [-2, -18]) -> [-2, 19, 20, 10, 11, 12]
([-2, 19, 20, 10, 11, 12] [-2, -10]) -> [-2, 19, 20, 11, 12]
([-2, 19, 20, 11, 12] [1, 2, 3, 4]) -> [1, 19, 3, 20, 4, 11, 12]
([1, 19, 3, 20, 4, 11, 12] [-4, -8]) -> [1, 3, 19, 20, -8, 11, 12]
([1, 3, 19, 20, -8, 11, 12] [1, 3, 19, 20, 5, 7, 8, 11]) -> [1, 3, 19, 20, 5, 7, 11, 12]
([1, 3, 19, 20, 5, 7, 11, 12] [1, 3, 19, -5, 20, 11]) -> [1, 3, 19, 20, 7, 11, 12]
([1, 3, 19, 20, 7, 11, 12] [-8, -12]) -> [1, 3, 19, 20, 7, -8, 11]
([1, 3, 19, 20, 7, -8, 11] [1, 3, 19, 20, 5, 7, 8, 11]) -> [1, 3, 19, 20, 5, 7, 11]
([1, 3, 19, 20, 5, 7, 11] [1, 3, 19, -5, 20, 11]) -> [1, 3, 19, 20, 7, 11]
([-12, -20] [9, 10, 11, 12]) -> [-20, 9, 10, 11]
([-20, 9, 10, 11] [-5, -9]) -> [-20, -5, 10, 11]
([-20, -5, 10, 11] [1, -20, 3, 5, 7]) -> [1, -20, 3, 7, 10, 11]
([1, -20, 3, 7, 10, 11] [1, 3, 19, 20, 7, 11]) -> [1, 3, 19, 7, 10, 11]
([1, 3, 19, 7, 10, 11] [-1]) -> [3, 19, 7, 10, 11]
([3, 19, 7, 10, 11] [-3, -15]) -> [19, 7, 10, 11, -15]
([19, 7, 10, 11, -15] [-15, -19]) -> [7, 10, 11, -15]
([7, 10, 11, -15] [-7, -15]) -> [10, 11, -15]
([10, 11, -15] [-11, -15]) -> [10, -15]
([10, -15] [-2, -10]) -> [-2, -15]
([-2, -15] [1, 15]) -> [-2, 1]
([-2, 1] [-1]) -> [-2]
([-2] [1, 2, 3, 4]) -> [1, 3, 4]
([1, 3, 4] [-1]) -> [3, 4]
([3, 4] [-3, -15]) -> [4, -15]
([4, -15] [-4, -20]) -> [-20, -15]
([-20, -15] [1, 15]) -> [1, -20]
([1, -20] [-1]) -> [-20]
([-20] [1, 3, 19, 20, 7, 11]) -> [1, 3, 19, 7, 11]
([1, 3, 19, 7, 11] [-1]) -> [3, 19, 7, 11]
([3, 19, 7, 11] [-3, -15]) -> [19, 7, 11, -15]
([19, 7, 11, -15] [-15, -19]) -> [7, 11, -15]
([7, 11, -15] [-7, -15]) -> [11, -15]
([11, -15] [-11, -15]) -> [-15]
([-15] [1, 15]) -> [1]
([1] [-1]) -> []
